1684576
32,1,48,2,16,59,28,50,44,14,10,18,57,33,52,22,31,43,46,34,55,26,66,11,64,67,7,38,21,3,63,36,53,37,39,62,51,35,68,8,15,9,58,27,17,45,65,4,20,47,13,54,19,49,23,6,41,30,25,29,60,5,40,56,12,61,24,42